
  22   10
  10   10   10   10   10   10   10   10   10   10

   0   0   0   0   0   0   0   0   0   0   0   8 2 3 4 12 13 19 20 21 
   4   0   0   0   0   0   0   0  10   0   0   5 18 17 11 7 6 
   1   0   0   0   0  10   0   0   0   0   0   2 17 5 
   2   0   0   0   0  10   0   0   0   0   0   3 17 9 6 
   8   0   0   0   0   0   0   0   0   0  10   2 18 6 
   3   0   0   0  10   0   0   0   0   0   0   3 16 15 8 
   7   0   0  10   0   0   0   0   0   0   0   2 15 14 
   7   0   0   0   0   0  10   0   0   0   0   1 10 
   3  10   0   0   0   0   0   0   0   0   0   1 10 
   8   0   0   0  10   0   0   0   0   0   0   1 14 
   7   0   0  10   0   0   0   0   0   0   0   1 15 
   6   0   0   0   0   0   0   0  10   0   0   1 17 
   5   0   0   0   0   0   0  10   0   0   0   1 15 
   4   0   0   0   0   0   0  10   0   0   0   1 22
   2   0   0   0   0   0  10   0   0   0   0   1 22
   2   0   0   0   0   0   0   0  10   0   0   1 22
   9   0   0   0   0   0   0   0  10   0   0   1 22
   4   0   0   0   0   0   0   0  10   0   0   1 22
   5   0   0   0   0   0   0   0  10   0   0   1 22
   5   0   0   0  10   0   0   0   0   0   0   1 22
   4   0  10   0   0   0   0   0   0   0   0   1 22
   0   0   0   0   0   0   0   0   0   0   0   0 
